words_train/words_914_SAT.qaiger
aag 77 16 0 1 61
16
30
18
2
6
32
4
12
10
20
14
22
8
28
26
24
155
34 27 25
36 34 29
38 22 20
40 39 36
42 31 13
44 30 12
46 45 43
48 46 41
50 39 34
52 51 28
54 53 41
56 47 29
58 57 10
60 59 55
62 25 7
64 24 6
66 65 63
68 67 38
70 66 39
72 71 69
74 73 61
76 74 49
78 39 25
80 27 9
82 26 8
84 83 81
86 84 79
88 85 78
90 89 87
92 54 10
94 23 5
96 22 4
98 97 95
100 21 2
102 100 99
104 20 3
106 104 98
108 107 103
110 109 93
112 110 90
114 112 76
116 31 23
118 116 36
120 119 33
122 118 32
124 123 121
126 31 21
128 126 22
130 128 36
132 131 14
134 130 15
136 135 133
138 137 124
140 136 125
142 141 139
144 131 120
146 144 17
148 145 16
150 149 147
152 151 143
154 152 114
i0 1 x[7]
i1 2 z[6]
i2 2 z[0]
i3 1 x[0]
i4 1 x[2]
i5 2 z[7]
i6 1 x[1]
i7 1 x[5]
i8 1 x[4]
i9 2 z[1]
i10 1 x[6]
i11 2 z[2]
i12 1 x[3]
i13 2 z[5]
i14 2 z[4]
i15 2 z[3]
o0 bool[0]
c
simplified
  !=
    1 x
    subtract
      add
        >> 1
          2 z
        invert
          1
      1
