words_train/words_914_SAT.qaiger.qdimacs
p cnf 77 184
a 1 2 3 4 5 6 7 8 0
e 9 10 11 12 13 14 15 16 17 18 19 20 21 22 23 24 25 26 27 28 29 30 31 32 33 34 35 36 37 38 39 40 41 42 43 44 45 46 47 48 49 50 51 52 53 54 55 56 57 58 59 60 61 62 63 64 65 66 67 68 69 70 71 72 73 74 75 76 77 0
13 12 17 0
-13 -17 0
-12 -17 0
-17 14 18 0
17 -18 0
-14 -18 0
-11 -10 19 0
11 -19 0
10 -19 0
19 -18 20 0
-19 -20 0
18 -20 0
15 6 21 0
-15 -21 0
-6 -21 0
-15 -6 22 0
15 -22 0
6 -22 0
22 21 23 0
-22 -23 0
-21 -23 0
-23 20 24 0
23 -24 0
-20 -24 0
19 -17 25 0
-19 -25 0
17 -25 0
25 -14 26 0
-25 -26 0
14 -26 0
26 20 27 0
-26 -27 0
-20 -27 0
23 14 28 0
-23 -28 0
-14 -28 0
28 -5 29 0
-28 -29 0
5 -29 0
29 27 30 0
-29 -30 0
-27 -30 0
12 3 31 0
-12 -31 0
-3 -31 0
-12 -3 32 0
12 -32 0
3 -32 0
32 31 33 0
-32 -33 0
-31 -33 0
33 -19 34 0
-33 -34 0
19 -34 0
-33 19 35 0
33 -35 0
-19 -35 0
35 34 36 0
-35 -36 0
-34 -36 0
36 30 37 0
-36 -37 0
-30 -37 0
-37 24 38 0
37 -38 0
-24 -38 0
19 12 39 0
-19 -39 0
-12 -39 0
13 4 40 0
-13 -40 0
-4 -40 0
-13 -4 41 0
13 -41 0
4 -41 0
41 40 42 0
-41 -42 0
-40 -42 0
-42 39 43 0
42 -43 0
-39 -43 0
42 -39 44 0
-42 -44 0
39 -44 0
44 43 45 0
-44 -45 0
-43 -45 0
-27 -5 46 0
27 -46 0
5 -46 0
11 2 47 0
-11 -47 0
-2 -47 0
-11 -2 48 0
11 -48 0
2 -48 0
48 47 49 0
-48 -49 0
-47 -49 0
10 -1 50 0
-10 -50 0
1 -50 0
-50 49 51 0
50 -51 0
-49 -51 0
-10 1 52 0
10 -52 0
-1 -52 0
-52 -49 53 0
52 -53 0
49 -53 0
53 51 54 0
-53 -54 0
-51 -54 0
54 46 55 0
-54 -55 0
-46 -55 0
-55 -45 56 0
55 -56 0
45 -56 0
-56 -38 57 0
56 -57 0
38 -57 0
15 11 58 0
-15 -58 0
-11 -58 0
-58 -18 59 0
58 -59 0
18 -59 0
59 16 60 0
-59 -60 0
-16 -60 0
-59 -16 61 0
59 -61 0
16 -61 0
61 60 62 0
-61 -62 0
-60 -62 0
15 10 63 0
-15 -63 0
-10 -63 0
-63 -11 64 0
63 -64 0
11 -64 0
-64 -18 65 0
64 -65 0
18 -65 0
65 -7 66 0
-65 -66 0
7 -66 0
-65 7 67 0
65 -67 0
-7 -67 0
67 66 68 0
-67 -68 0
-66 -68 0
68 -62 69 0
-68 -69 0
62 -69 0
-68 62 70 0
68 -70 0
-62 -70 0
70 69 71 0
-70 -71 0
-69 -71 0
65 -60 72 0
-65 -72 0
60 -72 0
-72 8 73 0
72 -73 0
-8 -73 0
72 -8 74 0
-72 -74 0
8 -74 0
74 73 75 0
-74 -75 0
-73 -75 0
75 71 76 0
-75 -76 0
-71 -76 0
-76 -57 77 0
76 -77 0
57 -77 0
-77 0
